column=6;
row=6;
Board=[|5,6,0,0,0,0|0,0,0,0,0,0|0,0,0,0,0,0|2,0,1,6,3,0|0,3,4,5,2,6|0,0,6,0,0,0|];
horizontal=[|1,0,1,0,1|0,0,0,1,0|1,0,1,0,0|0,0,0,0,0|0,1,1,0,0|0,0,0,0,1|];
vertical=[|1,0,0,1,0,1|0,0,0,0,0,0|0,1,1,0,0,0|1,1,0,1,1,1|0,0,0,0,0,0|];
